\ Model Cl_40_Ins_9.lp
\ LP format - for model browsing. Use MPS format to capture full model detail.
Maximize
 
Subject To
 obj1: y[0] = 0
 obj2: y[1] = 0
 obj1_Exp: - y[0] + 97 x[0] + 96 x[1] + 96 x[2] + 91 x[3] + 91 x[4]
   + 91 x[5] + 90 x[6] + 89 x[7] + 88 x[8] + 80 x[9] + 79 x[10] + 75 x[11]
   + 71 x[12] + 69 x[13] + 61 x[14] + 52 x[15] + 50 x[16] + 49 x[17]
   + 48 x[18] + 44 x[19] + 44 x[20] + 41 x[21] + 41 x[22] + 36 x[23]
   + 35 x[24] + 34 x[25] + 32 x[26] + 31 x[27] + 31 x[28] + 29 x[29]
   + 27 x[30] + 25 x[31] + 25 x[32] + 21 x[33] + 17 x[34] + 16 x[35]
   + 9 x[36] + 6 x[37] + 4 x[38] + 4 x[39] = 0
 obj2_Exp: - y[1] + x[0] + 20 x[1] + 45 x[2] + 77 x[3] + 17 x[4] + 31 x[5]
   + 26 x[6] + 36 x[7] + 36 x[8] + 90 x[9] + 77 x[10] + 95 x[11] + 47 x[12]
   + 80 x[13] + 78 x[14] + 18 x[15] + 31 x[16] + 64 x[17] + 68 x[18]
   + 34 x[19] + 75 x[20] + 10 x[21] + 15 x[22] + 7 x[23] + 61 x[24]
   + 7 x[25] + 4 x[26] + 90 x[27] + 10 x[28] + 15 x[29] + 72 x[30]
   + 31 x[31] + 84 x[32] + 20 x[33] + 90 x[34] + 8 x[35] + 47 x[36]
   + 27 x[37] + 72 x[38] + 97 x[39] = 0
 Budget: 107 x[0] + 106 x[1] + 106 x[2] + 101 x[3] + 101 x[4] + 101 x[5]
   + 100 x[6] + 99 x[7] + 98 x[8] + 90 x[9] + 89 x[10] + 85 x[11]
   + 81 x[12] + 79 x[13] + 71 x[14] + 62 x[15] + 60 x[16] + 59 x[17]
   + 58 x[18] + 54 x[19] + 54 x[20] + 51 x[21] + 51 x[22] + 46 x[23]
   + 45 x[24] + 44 x[25] + 42 x[26] + 41 x[27] + 41 x[28] + 39 x[29]
   + 37 x[30] + 35 x[31] + 35 x[32] + 31 x[33] + 27 x[34] + 26 x[35]
   + 19 x[36] + 16 x[37] + 14 x[38] + 14 x[39] <= 605
Bounds
Binaries
 x[0] x[1] x[2] x[3] x[4] x[5] x[6] x[7] x[8] x[9] x[10] x[11] x[12] x[13]
 x[14] x[15] x[16] x[17] x[18] x[19] x[20] x[21] x[22] x[23] x[24] x[25]
 x[26] x[27] x[28] x[29] x[30] x[31] x[32] x[33] x[34] x[35] x[36] x[37]
 x[38] x[39]
Generals
 y[0] y[1]
End
